
Gurobi 11.0.1 (linux64, gurobi_cl) logging started Mon May  6 20:19:15 2024

Set parameter WLSAccessID
Set parameter WLSSecret
Set parameter LicenseID to value 2416028
Set parameter LogFile to value "gurobi.log"
Using license file /home/zhangh5/gurobi.lic
Academic license 2416028 - for non-commercial use only - registered to zh___@mskcc.org

Gurobi 11.0.1 (linux64, gurobi_cl) logging started Fri May 10 11:00:56 2024

Set parameter WLSAccessID
Set parameter WLSSecret
Set parameter LicenseID to value 2416028
Set parameter LogFile to value "gurobi.log"
Using license file /home/zhangh5/gurobi.lic
Academic license 2416028 - for non-commercial use only - registered to zh___@mskcc.org

Gurobi 11.0.1 (linux64, gurobi_cl) logging started Fri May 10 11:02:04 2024

Set parameter WLSAccessID
Set parameter WLSSecret
Set parameter LicenseID to value 2416028
Set parameter LogFile to value "gurobi.log"
Using license file /home/zhangh5/gurobi.lic
Academic license 2416028 - for non-commercial use only - registered to zh___@mskcc.org

Gurobi 11.0.1 (linux64, gurobi_cl) logging started Fri May 10 11:02:28 2024

Set parameter WLSAccessID
Set parameter WLSSecret
Set parameter LicenseID to value 2416028
Set parameter LogFile to value "gurobi.log"
Using license file /home/zhangh5/gurobi.lic
Academic license 2416028 - for non-commercial use only - registered to zh___@mskcc.org

Gurobi 11.0.1 (linux64, gurobi_cl) logging started Fri May 10 11:03:28 2024

Set parameter WLSAccessID
Set parameter WLSSecret
Set parameter LicenseID to value 2416028
Set parameter LogFile to value "gurobi.log"
Using license file /home/zhangh5/gurobi.lic
Academic license 2416028 - for non-commercial use only - registered to zh___@mskcc.org

Gurobi 11.0.1 (linux64, gurobi_cl) logging started Fri May 10 11:15:47 2024

Set parameter WLSAccessID
Set parameter WLSSecret
Set parameter LicenseID to value 2416028
Set parameter LogFile to value "gurobi.log"
Using license file /home/zhangh5/gurobi.lic
Academic license 2416028 - for non-commercial use only - registered to zh___@mskcc.org

Gurobi 11.0.1 (linux64, gurobi_cl) logging started Fri May 10 11:18:08 2024

Set parameter WLSAccessID
Set parameter WLSSecret
Set parameter LicenseID to value 2416028
Set parameter LogFile to value "gurobi.log"
Using license file /home/zhangh5/gurobi.lic
Academic license 2416028 - for non-commercial use only - registered to zh___@mskcc.org

Gurobi 11.0.1 (linux64, gurobi_cl) logging started Fri May 10 11:19:38 2024

Set parameter WLSAccessID
Set parameter WLSSecret
Set parameter LicenseID to value 2416028
Set parameter LogFile to value "gurobi.log"
Using license file /home/zhangh5/gurobi.lic
Academic license 2416028 - for non-commercial use only - registered to zh___@mskcc.org

Gurobi 11.0.1 (linux64, gurobi_cl) logging started Fri May 10 11:22:28 2024

Set parameter WLSAccessID
Set parameter WLSSecret
Set parameter LicenseID to value 2416028
Set parameter LogFile to value "gurobi.log"
Using license file /home/zhangh5/gurobi.lic
Academic license 2416028 - for non-commercial use only - registered to zh___@mskcc.org

Gurobi 11.0.1 (linux64, gurobi_cl) logging started Sun May 12 12:33:11 2024

Set parameter WLSAccessID
Set parameter WLSSecret
Set parameter LicenseID to value 2416028
Set parameter LogFile to value "gurobi.log"
Using license file /home/zhangh5/gurobi.lic
Academic license 2416028 - for non-commercial use only - registered to zh___@mskcc.org

Gurobi 11.0.1 (linux64, gurobi_cl) logging started Sun May 12 12:37:00 2024

Set parameter WLSAccessID
Set parameter WLSSecret
Set parameter LicenseID to value 2416028
Set parameter LogFile to value "gurobi.log"
Using license file /home/zhangh5/gurobi.lic
Academic license 2416028 - for non-commercial use only - registered to zh___@mskcc.org

Gurobi 11.0.1 (linux64, gurobi_cl) logging started Sun May 12 12:41:47 2024

Set parameter WLSAccessID
Set parameter WLSSecret
Set parameter LicenseID to value 2416028
Set parameter LogFile to value "gurobi.log"
Using license file /home/zhangh5/gurobi.lic
Academic license 2416028 - for non-commercial use only - registered to zh___@mskcc.org

Gurobi 11.0.1 (linux64, gurobi_cl) logging started Sun May 12 12:44:19 2024

Set parameter WLSAccessID
Set parameter WLSSecret
Set parameter LicenseID to value 2416028
Set parameter LogFile to value "gurobi.log"
Using license file /home/zhangh5/gurobi.lic
Academic license 2416028 - for non-commercial use only - registered to zh___@mskcc.org

Gurobi 11.0.1 (linux64, gurobi_cl) logging started Sun May 12 13:04:02 2024

Set parameter WLSAccessID
Set parameter WLSSecret
Set parameter LicenseID to value 2416028
Set parameter LogFile to value "gurobi.log"
Using license file /home/zhangh5/gurobi.lic
Academic license 2416028 - for non-commercial use only - registered to zh___@mskcc.org
